10 45
1 2 9
1 3 29
1 4 4
1 5 15
1 6 0
1 7 17
1 8 27
1 9 28
1 10 25
2 3 29
2 4 16
2 5 29
2 6 17
2 7 26
2 8 8
2 9 9
2 10 0
3 4 10
3 5 8
3 6 22
3 7 4
3 8 19
3 9 16
3 10 4
4 5 15
4 6 11
4 7 22
4 8 24
4 9 11
4 10 26
5 6 1
5 7 8
5 8 4
5 9 14
5 10 17
6 7 19
6 8 22
6 9 13
6 10 5
7 8 13
7 9 19
7 10 25
8 9 13
8 10 28
9 10 22
